p cnf 100 2935
1 2 3 4 5 6 7 8 9 10 0
11 12 13 14 15 16 17 18 19 20 0
21 22 23 24 25 26 27 28 29 30 0
31 32 33 34 35 36 37 38 39 40 0
41 42 43 44 45 46 47 48 49 50 0
51 52 53 54 55 56 57 58 59 60 0
61 62 63 64 65 66 67 68 69 70 0
71 72 73 74 75 76 77 78 79 80 0
81 82 83 84 85 86 87 88 89 90 0
91 92 93 94 95 96 97 98 99 100 0
-1 -2 0
-1 -3 0
-1 -4 0
-1 -5 0
-1 -6 0
-1 -7 0
-1 -8 0
-1 -9 0
-1 -10 0
-2 -3 0
-2 -4 0
-2 -5 0
-2 -6 0
-2 -7 0
-2 -8 0
-2 -9 0
-2 -10 0
-3 -4 0
-3 -5 0
-3 -6 0
-3 -7 0
-3 -8 0
-3 -9 0
-3 -10 0
-4 -5 0
-4 -6 0
-4 -7 0
-4 -8 0
-4 -9 0
-4 -10 0
-5 -6 0
-5 -7 0
-5 -8 0
-5 -9 0
-5 -10 0
-6 -7 0
-6 -8 0
-6 -9 0
-6 -10 0
-7 -8 0
-7 -9 0
-7 -10 0
-8 -9 0
-8 -10 0
-9 -10 0
-11 -12 0
-11 -13 0
-11 -14 0
-11 -15 0
-11 -16 0
-11 -17 0
-11 -18 0
-11 -19 0
-11 -20 0
-12 -13 0
-12 -14 0
-12 -15 0
-12 -16 0
-12 -17 0
-12 -18 0
-12 -19 0
-12 -20 0
-13 -14 0
-13 -15 0
-13 -16 0
-13 -17 0
-13 -18 0
-13 -19 0
-13 -20 0
-14 -15 0
-14 -16 0
-14 -17 0
-14 -18 0
-14 -19 0
-14 -20 0
-15 -16 0
-15 -17 0
-15 -18 0
-15 -19 0
-15 -20 0
-16 -17 0
-16 -18 0
-16 -19 0
-16 -20 0
-17 -18 0
-17 -19 0
-17 -20 0
-18 -19 0
-18 -20 0
-19 -20 0
-21 -22 0
-21 -23 0
-21 -24 0
-21 -25 0
-21 -26 0
-21 -27 0
-21 -28 0
-21 -29 0
-21 -30 0
-22 -23 0
-22 -24 0
-22 -25 0
-22 -26 0
-22 -27 0
-22 -28 0
-22 -29 0
-22 -30 0
-23 -24 0
-23 -25 0
-23 -26 0
-23 -27 0
-23 -28 0
-23 -29 0
-23 -30 0
-24 -25 0
-24 -26 0
-24 -27 0
-24 -28 0
-24 -29 0
-24 -30 0
-25 -26 0
-25 -27 0
-25 -28 0
-25 -29 0
-25 -30 0
-26 -27 0
-26 -28 0
-26 -29 0
-26 -30 0
-27 -28 0
-27 -29 0
-27 -30 0
-28 -29 0
-28 -30 0
-29 -30 0
-31 -32 0
-31 -33 0
-31 -34 0
-31 -35 0
-31 -36 0
-31 -37 0
-31 -38 0
-31 -39 0
-31 -40 0
-32 -33 0
-32 -34 0
-32 -35 0
-32 -36 0
-32 -37 0
-32 -38 0
-32 -39 0
-32 -40 0
-33 -34 0
-33 -35 0
-33 -36 0
-33 -37 0
-33 -38 0
-33 -39 0
-33 -40 0
-34 -35 0
-34 -36 0
-34 -37 0
-34 -38 0
-34 -39 0
-34 -40 0
-35 -36 0
-35 -37 0
-35 -38 0
-35 -39 0
-35 -40 0
-36 -37 0
-36 -38 0
-36 -39 0
-36 -40 0
-37 -38 0
-37 -39 0
-37 -40 0
-38 -39 0
-38 -40 0
-39 -40 0
-41 -42 0
-41 -43 0
-41 -44 0
-41 -45 0
-41 -46 0
-41 -47 0
-41 -48 0
-41 -49 0
-41 -50 0
-42 -43 0
-42 -44 0
-42 -45 0
-42 -46 0
-42 -47 0
-42 -48 0
-42 -49 0
-42 -50 0
-43 -44 0
-43 -45 0
-43 -46 0
-43 -47 0
-43 -48 0
-43 -49 0
-43 -50 0
-44 -45 0
-44 -46 0
-44 -47 0
-44 -48 0
-44 -49 0
-44 -50 0
-45 -46 0
-45 -47 0
-45 -48 0
-45 -49 0
-45 -50 0
-46 -47 0
-46 -48 0
-46 -49 0
-46 -50 0
-47 -48 0
-47 -49 0
-47 -50 0
-48 -49 0
-48 -50 0
-49 -50 0
-51 -52 0
-51 -53 0
-51 -54 0
-51 -55 0
-51 -56 0
-51 -57 0
-51 -58 0
-51 -59 0
-51 -60 0
-52 -53 0
-52 -54 0
-52 -55 0
-52 -56 0
-52 -57 0
-52 -58 0
-52 -59 0
-52 -60 0
-53 -54 0
-53 -55 0
-53 -56 0
-53 -57 0
-53 -58 0
-53 -59 0
-53 -60 0
-54 -55 0
-54 -56 0
-54 -57 0
-54 -58 0
-54 -59 0
-54 -60 0
-55 -56 0
-55 -57 0
-55 -58 0
-55 -59 0
-55 -60 0
-56 -57 0
-56 -58 0
-56 -59 0
-56 -60 0
-57 -58 0
-57 -59 0
-57 -60 0
-58 -59 0
-58 -60 0
-59 -60 0
-61 -62 0
-61 -63 0
-61 -64 0
-61 -65 0
-61 -66 0
-61 -67 0
-61 -68 0
-61 -69 0
-61 -70 0
-62 -63 0
-62 -64 0
-62 -65 0
-62 -66 0
-62 -67 0
-62 -68 0
-62 -69 0
-62 -70 0
-63 -64 0
-63 -65 0
-63 -66 0
-63 -67 0
-63 -68 0
-63 -69 0
-63 -70 0
-64 -65 0
-64 -66 0
-64 -67 0
-64 -68 0
-64 -69 0
-64 -70 0
-65 -66 0
-65 -67 0
-65 -68 0
-65 -69 0
-65 -70 0
-66 -67 0
-66 -68 0
-66 -69 0
-66 -70 0
-67 -68 0
-67 -69 0
-67 -70 0
-68 -69 0
-68 -70 0
-69 -70 0
-71 -72 0
-71 -73 0
-71 -74 0
-71 -75 0
-71 -76 0
-71 -77 0
-71 -78 0
-71 -79 0
-71 -80 0
-72 -73 0
-72 -74 0
-72 -75 0
-72 -76 0
-72 -77 0
-72 -78 0
-72 -79 0
-72 -80 0
-73 -74 0
-73 -75 0
-73 -76 0
-73 -77 0
-73 -78 0
-73 -79 0
-73 -80 0
-74 -75 0
-74 -76 0
-74 -77 0
-74 -78 0
-74 -79 0
-74 -80 0
-75 -76 0
-75 -77 0
-75 -78 0
-75 -79 0
-75 -80 0
-76 -77 0
-76 -78 0
-76 -79 0
-76 -80 0
-77 -78 0
-77 -79 0
-77 -80 0
-78 -79 0
-78 -80 0
-79 -80 0
-81 -82 0
-81 -83 0
-81 -84 0
-81 -85 0
-81 -86 0
-81 -87 0
-81 -88 0
-81 -89 0
-81 -90 0
-82 -83 0
-82 -84 0
-82 -85 0
-82 -86 0
-82 -87 0
-82 -88 0
-82 -89 0
-82 -90 0
-83 -84 0
-83 -85 0
-83 -86 0
-83 -87 0
-83 -88 0
-83 -89 0
-83 -90 0
-84 -85 0
-84 -86 0
-84 -87 0
-84 -88 0
-84 -89 0
-84 -90 0
-85 -86 0
-85 -87 0
-85 -88 0
-85 -89 0
-85 -90 0
-86 -87 0
-86 -88 0
-86 -89 0
-86 -90 0
-87 -88 0
-87 -89 0
-87 -90 0
-88 -89 0
-88 -90 0
-89 -90 0
-91 -92 0
-91 -93 0
-91 -94 0
-91 -95 0
-91 -96 0
-91 -97 0
-91 -98 0
-91 -99 0
-91 -100 0
-92 -93 0
-92 -94 0
-92 -95 0
-92 -96 0
-92 -97 0
-92 -98 0
-92 -99 0
-92 -100 0
-93 -94 0
-93 -95 0
-93 -96 0
-93 -97 0
-93 -98 0
-93 -99 0
-93 -100 0
-94 -95 0
-94 -96 0
-94 -97 0
-94 -98 0
-94 -99 0
-94 -100 0
-95 -96 0
-95 -97 0
-95 -98 0
-95 -99 0
-95 -100 0
-96 -97 0
-96 -98 0
-96 -99 0
-96 -100 0
-97 -98 0
-97 -99 0
-97 -100 0
-98 -99 0
-98 -100 0
-99 -100 0
-1 -11 0
-2 -12 0
-3 -13 0
-4 -14 0
-5 -15 0
-6 -16 0
-7 -17 0
-8 -18 0
-9 -19 0
-10 -20 0
-1 -21 0
-2 -22 0
-3 -23 0
-4 -24 0
-5 -25 0
-6 -26 0
-7 -27 0
-8 -28 0
-9 -29 0
-10 -30 0
-1 -31 0
-2 -32 0
-3 -33 0
-4 -34 0
-5 -35 0
-6 -36 0
-7 -37 0
-8 -38 0
-9 -39 0
-10 -40 0
-1 -41 0
-2 -42 0
-3 -43 0
-4 -44 0
-5 -45 0
-6 -46 0
-7 -47 0
-8 -48 0
-9 -49 0
-10 -50 0
-1 -51 0
-2 -52 0
-3 -53 0
-4 -54 0
-5 -55 0
-6 -56 0
-7 -57 0
-8 -58 0
-9 -59 0
-10 -60 0
-1 -61 0
-2 -62 0
-3 -63 0
-4 -64 0
-5 -65 0
-6 -66 0
-7 -67 0
-8 -68 0
-9 -69 0
-10 -70 0
-1 -71 0
-2 -72 0
-3 -73 0
-4 -74 0
-5 -75 0
-6 -76 0
-7 -77 0
-8 -78 0
-9 -79 0
-10 -80 0
-1 -81 0
-2 -82 0
-3 -83 0
-4 -84 0
-5 -85 0
-6 -86 0
-7 -87 0
-8 -88 0
-9 -89 0
-10 -90 0
-1 -91 0
-2 -92 0
-3 -93 0
-4 -94 0
-5 -95 0
-6 -96 0
-7 -97 0
-8 -98 0
-9 -99 0
-10 -100 0
-11 -21 0
-12 -22 0
-13 -23 0
-14 -24 0
-15 -25 0
-16 -26 0
-17 -27 0
-18 -28 0
-19 -29 0
-20 -30 0
-11 -31 0
-12 -32 0
-13 -33 0
-14 -34 0
-15 -35 0
-16 -36 0
-17 -37 0
-18 -38 0
-19 -39 0
-20 -40 0
-11 -41 0
-12 -42 0
-13 -43 0
-14 -44 0
-15 -45 0
-16 -46 0
-17 -47 0
-18 -48 0
-19 -49 0
-20 -50 0
-11 -51 0
-12 -52 0
-13 -53 0
-14 -54 0
-15 -55 0
-16 -56 0
-17 -57 0
-18 -58 0
-19 -59 0
-20 -60 0
-11 -61 0
-12 -62 0
-13 -63 0
-14 -64 0
-15 -65 0
-16 -66 0
-17 -67 0
-18 -68 0
-19 -69 0
-20 -70 0
-11 -71 0
-12 -72 0
-13 -73 0
-14 -74 0
-15 -75 0
-16 -76 0
-17 -77 0
-18 -78 0
-19 -79 0
-20 -80 0
-11 -81 0
-12 -82 0
-13 -83 0
-14 -84 0
-15 -85 0
-16 -86 0
-17 -87 0
-18 -88 0
-19 -89 0
-20 -90 0
-11 -91 0
-12 -92 0
-13 -93 0
-14 -94 0
-15 -95 0
-16 -96 0
-17 -97 0
-18 -98 0
-19 -99 0
-20 -100 0
-21 -31 0
-22 -32 0
-23 -33 0
-24 -34 0
-25 -35 0
-26 -36 0
-27 -37 0
-28 -38 0
-29 -39 0
-30 -40 0
-21 -41 0
-22 -42 0
-23 -43 0
-24 -44 0
-25 -45 0
-26 -46 0
-27 -47 0
-28 -48 0
-29 -49 0
-30 -50 0
-21 -51 0
-22 -52 0
-23 -53 0
-24 -54 0
-25 -55 0
-26 -56 0
-27 -57 0
-28 -58 0
-29 -59 0
-30 -60 0
-21 -61 0
-22 -62 0
-23 -63 0
-24 -64 0
-25 -65 0
-26 -66 0
-27 -67 0
-28 -68 0
-29 -69 0
-30 -70 0
-21 -71 0
-22 -72 0
-23 -73 0
-24 -74 0
-25 -75 0
-26 -76 0
-27 -77 0
-28 -78 0
-29 -79 0
-30 -80 0
-21 -81 0
-22 -82 0
-23 -83 0
-24 -84 0
-25 -85 0
-26 -86 0
-27 -87 0
-28 -88 0
-29 -89 0
-30 -90 0
-21 -91 0
-22 -92 0
-23 -93 0
-24 -94 0
-25 -95 0
-26 -96 0
-27 -97 0
-28 -98 0
-29 -99 0
-30 -100 0
-31 -41 0
-32 -42 0
-33 -43 0
-34 -44 0
-35 -45 0
-36 -46 0
-37 -47 0
-38 -48 0
-39 -49 0
-40 -50 0
-31 -51 0
-32 -52 0
-33 -53 0
-34 -54 0
-35 -55 0
-36 -56 0
-37 -57 0
-38 -58 0
-39 -59 0
-40 -60 0
-31 -61 0
-32 -62 0
-33 -63 0
-34 -64 0
-35 -65 0
-36 -66 0
-37 -67 0
-38 -68 0
-39 -69 0
-40 -70 0
-31 -71 0
-32 -72 0
-33 -73 0
-34 -74 0
-35 -75 0
-36 -76 0
-37 -77 0
-38 -78 0
-39 -79 0
-40 -80 0
-31 -81 0
-32 -82 0
-33 -83 0
-34 -84 0
-35 -85 0
-36 -86 0
-37 -87 0
-38 -88 0
-39 -89 0
-40 -90 0
-31 -91 0
-32 -92 0
-33 -93 0
-34 -94 0
-35 -95 0
-36 -96 0
-37 -97 0
-38 -98 0
-39 -99 0
-40 -100 0
-41 -51 0
-42 -52 0
-43 -53 0
-44 -54 0
-45 -55 0
-46 -56 0
-47 -57 0
-48 -58 0
-49 -59 0
-50 -60 0
-41 -61 0
-42 -62 0
-43 -63 0
-44 -64 0
-45 -65 0
-46 -66 0
-47 -67 0
-48 -68 0
-49 -69 0
-50 -70 0
-41 -71 0
-42 -72 0
-43 -73 0
-44 -74 0
-45 -75 0
-46 -76 0
-47 -77 0
-48 -78 0
-49 -79 0
-50 -80 0
-41 -81 0
-42 -82 0
-43 -83 0
-44 -84 0
-45 -85 0
-46 -86 0
-47 -87 0
-48 -88 0
-49 -89 0
-50 -90 0
-41 -91 0
-42 -92 0
-43 -93 0
-44 -94 0
-45 -95 0
-46 -96 0
-47 -97 0
-48 -98 0
-49 -99 0
-50 -100 0
-51 -61 0
-52 -62 0
-53 -63 0
-54 -64 0
-55 -65 0
-56 -66 0
-57 -67 0
-58 -68 0
-59 -69 0
-60 -70 0
-51 -71 0
-52 -72 0
-53 -73 0
-54 -74 0
-55 -75 0
-56 -76 0
-57 -77 0
-58 -78 0
-59 -79 0
-60 -80 0
-51 -81 0
-52 -82 0
-53 -83 0
-54 -84 0
-55 -85 0
-56 -86 0
-57 -87 0
-58 -88 0
-59 -89 0
-60 -90 0
-51 -91 0
-52 -92 0
-53 -93 0
-54 -94 0
-55 -95 0
-56 -96 0
-57 -97 0
-58 -98 0
-59 -99 0
-60 -100 0
-61 -71 0
-62 -72 0
-63 -73 0
-64 -74 0
-65 -75 0
-66 -76 0
-67 -77 0
-68 -78 0
-69 -79 0
-70 -80 0
-61 -81 0
-62 -82 0
-63 -83 0
-64 -84 0
-65 -85 0
-66 -86 0
-67 -87 0
-68 -88 0
-69 -89 0
-70 -90 0
-61 -91 0
-62 -92 0
-63 -93 0
-64 -94 0
-65 -95 0
-66 -96 0
-67 -97 0
-68 -98 0
-69 -99 0
-70 -100 0
-71 -81 0
-72 -82 0
-73 -83 0
-74 -84 0
-75 -85 0
-76 -86 0
-77 -87 0
-78 -88 0
-79 -89 0
-80 -90 0
-71 -91 0
-72 -92 0
-73 -93 0
-74 -94 0
-75 -95 0
-76 -96 0
-77 -97 0
-78 -98 0
-79 -99 0
-80 -100 0
-81 -91 0
-82 -92 0
-83 -93 0
-84 -94 0
-85 -95 0
-86 -96 0
-87 -97 0
-88 -98 0
-89 -99 0
-90 -100 0
-2 -11 0
-3 -11 0
-3 -12 0
-4 -11 0
-4 -12 0
-4 -13 0
-5 -11 0
-5 -12 0
-5 -13 0
-5 -14 0
-6 -11 0
-6 -12 0
-6 -13 0
-6 -14 0
-6 -15 0
-7 -11 0
-7 -12 0
-7 -13 0
-7 -14 0
-7 -15 0
-7 -16 0
-8 -11 0
-8 -12 0
-8 -13 0
-8 -14 0
-8 -15 0
-8 -16 0
-8 -17 0
-9 -11 0
-9 -12 0
-9 -13 0
-9 -14 0
-9 -15 0
-9 -16 0
-9 -17 0
-9 -18 0
-10 -11 0
-10 -12 0
-10 -13 0
-10 -14 0
-10 -15 0
-10 -16 0
-10 -17 0
-10 -18 0
-10 -19 0
-2 -21 0
-3 -21 0
-3 -22 0
-4 -21 0
-4 -22 0
-4 -23 0
-5 -21 0
-5 -22 0
-5 -23 0
-5 -24 0
-6 -21 0
-6 -22 0
-6 -23 0
-6 -24 0
-6 -25 0
-7 -21 0
-7 -22 0
-7 -23 0
-7 -24 0
-7 -25 0
-7 -26 0
-8 -21 0
-8 -22 0
-8 -23 0
-8 -24 0
-8 -25 0
-8 -26 0
-8 -27 0
-9 -21 0
-9 -22 0
-9 -23 0
-9 -24 0
-9 -25 0
-9 -26 0
-9 -27 0
-9 -28 0
-10 -21 0
-10 -22 0
-10 -23 0
-10 -24 0
-10 -25 0
-10 -26 0
-10 -27 0
-10 -28 0
-10 -29 0
-2 -31 0
-3 -31 0
-3 -32 0
-4 -31 0
-4 -32 0
-4 -33 0
-5 -31 0
-5 -32 0
-5 -33 0
-5 -34 0
-6 -31 0
-6 -32 0
-6 -33 0
-6 -34 0
-6 -35 0
-7 -31 0
-7 -32 0
-7 -33 0
-7 -34 0
-7 -35 0
-7 -36 0
-8 -31 0
-8 -32 0
-8 -33 0
-8 -34 0
-8 -35 0
-8 -36 0
-8 -37 0
-9 -31 0
-9 -32 0
-9 -33 0
-9 -34 0
-9 -35 0
-9 -36 0
-9 -37 0
-9 -38 0
-10 -31 0
-10 -32 0
-10 -33 0
-10 -34 0
-10 -35 0
-10 -36 0
-10 -37 0
-10 -38 0
-10 -39 0
-2 -41 0
-3 -41 0
-3 -42 0
-4 -41 0
-4 -42 0
-4 -43 0
-5 -41 0
-5 -42 0
-5 -43 0
-5 -44 0
-6 -41 0
-6 -42 0
-6 -43 0
-6 -44 0
-6 -45 0
-7 -41 0
-7 -42 0
-7 -43 0
-7 -44 0
-7 -45 0
-7 -46 0
-8 -41 0
-8 -42 0
-8 -43 0
-8 -44 0
-8 -45 0
-8 -46 0
-8 -47 0
-9 -41 0
-9 -42 0
-9 -43 0
-9 -44 0
-9 -45 0
-9 -46 0
-9 -47 0
-9 -48 0
-10 -41 0
-10 -42 0
-10 -43 0
-10 -44 0
-10 -45 0
-10 -46 0
-10 -47 0
-10 -48 0
-10 -49 0
-2 -51 0
-3 -51 0
-3 -52 0
-4 -51 0
-4 -52 0
-4 -53 0
-5 -51 0
-5 -52 0
-5 -53 0
-5 -54 0
-6 -51 0
-6 -52 0
-6 -53 0
-6 -54 0
-6 -55 0
-7 -51 0
-7 -52 0
-7 -53 0
-7 -54 0
-7 -55 0
-7 -56 0
-8 -51 0
-8 -52 0
-8 -53 0
-8 -54 0
-8 -55 0
-8 -56 0
-8 -57 0
-9 -51 0
-9 -52 0
-9 -53 0
-9 -54 0
-9 -55 0
-9 -56 0
-9 -57 0
-9 -58 0
-10 -51 0
-10 -52 0
-10 -53 0
-10 -54 0
-10 -55 0
-10 -56 0
-10 -57 0
-10 -58 0
-10 -59 0
-2 -61 0
-3 -61 0
-3 -62 0
-4 -61 0
-4 -62 0
-4 -63 0
-5 -61 0
-5 -62 0
-5 -63 0
-5 -64 0
-6 -61 0
-6 -62 0
-6 -63 0
-6 -64 0
-6 -65 0
-7 -61 0
-7 -62 0
-7 -63 0
-7 -64 0
-7 -65 0
-7 -66 0
-8 -61 0
-8 -62 0
-8 -63 0
-8 -64 0
-8 -65 0
-8 -66 0
-8 -67 0
-9 -61 0
-9 -62 0
-9 -63 0
-9 -64 0
-9 -65 0
-9 -66 0
-9 -67 0
-9 -68 0
-10 -61 0
-10 -62 0
-10 -63 0
-10 -64 0
-10 -65 0
-10 -66 0
-10 -67 0
-10 -68 0
-10 -69 0
-2 -71 0
-3 -71 0
-3 -72 0
-4 -71 0
-4 -72 0
-4 -73 0
-5 -71 0
-5 -72 0
-5 -73 0
-5 -74 0
-6 -71 0
-6 -72 0
-6 -73 0
-6 -74 0
-6 -75 0
-7 -71 0
-7 -72 0
-7 -73 0
-7 -74 0
-7 -75 0
-7 -76 0
-8 -71 0
-8 -72 0
-8 -73 0
-8 -74 0
-8 -75 0
-8 -76 0
-8 -77 0
-9 -71 0
-9 -72 0
-9 -73 0
-9 -74 0
-9 -75 0
-9 -76 0
-9 -77 0
-9 -78 0
-10 -71 0
-10 -72 0
-10 -73 0
-10 -74 0
-10 -75 0
-10 -76 0
-10 -77 0
-10 -78 0
-10 -79 0
-2 -81 0
-3 -81 0
-3 -82 0
-4 -81 0
-4 -82 0
-4 -83 0
-5 -81 0
-5 -82 0
-5 -83 0
-5 -84 0
-6 -81 0
-6 -82 0
-6 -83 0
-6 -84 0
-6 -85 0
-7 -81 0
-7 -82 0
-7 -83 0
-7 -84 0
-7 -85 0
-7 -86 0
-8 -81 0
-8 -82 0
-8 -83 0
-8 -84 0
-8 -85 0
-8 -86 0
-8 -87 0
-9 -81 0
-9 -82 0
-9 -83 0
-9 -84 0
-9 -85 0
-9 -86 0
-9 -87 0
-9 -88 0
-10 -81 0
-10 -82 0
-10 -83 0
-10 -84 0
-10 -85 0
-10 -86 0
-10 -87 0
-10 -88 0
-10 -89 0
-2 -91 0
-3 -91 0
-3 -92 0
-4 -91 0
-4 -92 0
-4 -93 0
-5 -91 0
-5 -92 0
-5 -93 0
-5 -94 0
-6 -91 0
-6 -92 0
-6 -93 0
-6 -94 0
-6 -95 0
-7 -91 0
-7 -92 0
-7 -93 0
-7 -94 0
-7 -95 0
-7 -96 0
-8 -91 0
-8 -92 0
-8 -93 0
-8 -94 0
-8 -95 0
-8 -96 0
-8 -97 0
-9 -91 0
-9 -92 0
-9 -93 0
-9 -94 0
-9 -95 0
-9 -96 0
-9 -97 0
-9 -98 0
-10 -91 0
-10 -92 0
-10 -93 0
-10 -94 0
-10 -95 0
-10 -96 0
-10 -97 0
-10 -98 0
-10 -99 0
-12 -21 0
-13 -21 0
-13 -22 0
-14 -21 0
-14 -22 0
-14 -23 0
-15 -21 0
-15 -22 0
-15 -23 0
-15 -24 0
-16 -21 0
-16 -22 0
-16 -23 0
-16 -24 0
-16 -25 0
-17 -21 0
-17 -22 0
-17 -23 0
-17 -24 0
-17 -25 0
-17 -26 0
-18 -21 0
-18 -22 0
-18 -23 0
-18 -24 0
-18 -25 0
-18 -26 0
-18 -27 0
-19 -21 0
-19 -22 0
-19 -23 0
-19 -24 0
-19 -25 0
-19 -26 0
-19 -27 0
-19 -28 0
-20 -21 0
-20 -22 0
-20 -23 0
-20 -24 0
-20 -25 0
-20 -26 0
-20 -27 0
-20 -28 0
-20 -29 0
-12 -31 0
-13 -31 0
-13 -32 0
-14 -31 0
-14 -32 0
-14 -33 0
-15 -31 0
-15 -32 0
-15 -33 0
-15 -34 0
-16 -31 0
-16 -32 0
-16 -33 0
-16 -34 0
-16 -35 0
-17 -31 0
-17 -32 0
-17 -33 0
-17 -34 0
-17 -35 0
-17 -36 0
-18 -31 0
-18 -32 0
-18 -33 0
-18 -34 0
-18 -35 0
-18 -36 0
-18 -37 0
-19 -31 0
-19 -32 0
-19 -33 0
-19 -34 0
-19 -35 0
-19 -36 0
-19 -37 0
-19 -38 0
-20 -31 0
-20 -32 0
-20 -33 0
-20 -34 0
-20 -35 0
-20 -36 0
-20 -37 0
-20 -38 0
-20 -39 0
-12 -41 0
-13 -41 0
-13 -42 0
-14 -41 0
-14 -42 0
-14 -43 0
-15 -41 0
-15 -42 0
-15 -43 0
-15 -44 0
-16 -41 0
-16 -42 0
-16 -43 0
-16 -44 0
-16 -45 0
-17 -41 0
-17 -42 0
-17 -43 0
-17 -44 0
-17 -45 0
-17 -46 0
-18 -41 0
-18 -42 0
-18 -43 0
-18 -44 0
-18 -45 0
-18 -46 0
-18 -47 0
-19 -41 0
-19 -42 0
-19 -43 0
-19 -44 0
-19 -45 0
-19 -46 0
-19 -47 0
-19 -48 0
-20 -41 0
-20 -42 0
-20 -43 0
-20 -44 0
-20 -45 0
-20 -46 0
-20 -47 0
-20 -48 0
-20 -49 0
-12 -51 0
-13 -51 0
-13 -52 0
-14 -51 0
-14 -52 0
-14 -53 0
-15 -51 0
-15 -52 0
-15 -53 0
-15 -54 0
-16 -51 0
-16 -52 0
-16 -53 0
-16 -54 0
-16 -55 0
-17 -51 0
-17 -52 0
-17 -53 0
-17 -54 0
-17 -55 0
-17 -56 0
-18 -51 0
-18 -52 0
-18 -53 0
-18 -54 0
-18 -55 0
-18 -56 0
-18 -57 0
-19 -51 0
-19 -52 0
-19 -53 0
-19 -54 0
-19 -55 0
-19 -56 0
-19 -57 0
-19 -58 0
-20 -51 0
-20 -52 0
-20 -53 0
-20 -54 0
-20 -55 0
-20 -56 0
-20 -57 0
-20 -58 0
-20 -59 0
-12 -61 0
-13 -61 0
-13 -62 0
-14 -61 0
-14 -62 0
-14 -63 0
-15 -61 0
-15 -62 0
-15 -63 0
-15 -64 0
-16 -61 0
-16 -62 0
-16 -63 0
-16 -64 0
-16 -65 0
-17 -61 0
-17 -62 0
-17 -63 0
-17 -64 0
-17 -65 0
-17 -66 0
-18 -61 0
-18 -62 0
-18 -63 0
-18 -64 0
-18 -65 0
-18 -66 0
-18 -67 0
-19 -61 0
-19 -62 0
-19 -63 0
-19 -64 0
-19 -65 0
-19 -66 0
-19 -67 0
-19 -68 0
-20 -61 0
-20 -62 0
-20 -63 0
-20 -64 0
-20 -65 0
-20 -66 0
-20 -67 0
-20 -68 0
-20 -69 0
-12 -71 0
-13 -71 0
-13 -72 0
-14 -71 0
-14 -72 0
-14 -73 0
-15 -71 0
-15 -72 0
-15 -73 0
-15 -74 0
-16 -71 0
-16 -72 0
-16 -73 0
-16 -74 0
-16 -75 0
-17 -71 0
-17 -72 0
-17 -73 0
-17 -74 0
-17 -75 0
-17 -76 0
-18 -71 0
-18 -72 0
-18 -73 0
-18 -74 0
-18 -75 0
-18 -76 0
-18 -77 0
-19 -71 0
-19 -72 0
-19 -73 0
-19 -74 0
-19 -75 0
-19 -76 0
-19 -77 0
-19 -78 0
-20 -71 0
-20 -72 0
-20 -73 0
-20 -74 0
-20 -75 0
-20 -76 0
-20 -77 0
-20 -78 0
-20 -79 0
-12 -81 0
-13 -81 0
-13 -82 0
-14 -81 0
-14 -82 0
-14 -83 0
-15 -81 0
-15 -82 0
-15 -83 0
-15 -84 0
-16 -81 0
-16 -82 0
-16 -83 0
-16 -84 0
-16 -85 0
-17 -81 0
-17 -82 0
-17 -83 0
-17 -84 0
-17 -85 0
-17 -86 0
-18 -81 0
-18 -82 0
-18 -83 0
-18 -84 0
-18 -85 0
-18 -86 0
-18 -87 0
-19 -81 0
-19 -82 0
-19 -83 0
-19 -84 0
-19 -85 0
-19 -86 0
-19 -87 0
-19 -88 0
-20 -81 0
-20 -82 0
-20 -83 0
-20 -84 0
-20 -85 0
-20 -86 0
-20 -87 0
-20 -88 0
-20 -89 0
-12 -91 0
-13 -91 0
-13 -92 0
-14 -91 0
-14 -92 0
-14 -93 0
-15 -91 0
-15 -92 0
-15 -93 0
-15 -94 0
-16 -91 0
-16 -92 0
-16 -93 0
-16 -94 0
-16 -95 0
-17 -91 0
-17 -92 0
-17 -93 0
-17 -94 0
-17 -95 0
-17 -96 0
-18 -91 0
-18 -92 0
-18 -93 0
-18 -94 0
-18 -95 0
-18 -96 0
-18 -97 0
-19 -91 0
-19 -92 0
-19 -93 0
-19 -94 0
-19 -95 0
-19 -96 0
-19 -97 0
-19 -98 0
-20 -91 0
-20 -92 0
-20 -93 0
-20 -94 0
-20 -95 0
-20 -96 0
-20 -97 0
-20 -98 0
-20 -99 0
-22 -31 0
-23 -31 0
-23 -32 0
-24 -31 0
-24 -32 0
-24 -33 0
-25 -31 0
-25 -32 0
-25 -33 0
-25 -34 0
-26 -31 0
-26 -32 0
-26 -33 0
-26 -34 0
-26 -35 0
-27 -31 0
-27 -32 0
-27 -33 0
-27 -34 0
-27 -35 0
-27 -36 0
-28 -31 0
-28 -32 0
-28 -33 0
-28 -34 0
-28 -35 0
-28 -36 0
-28 -37 0
-29 -31 0
-29 -32 0
-29 -33 0
-29 -34 0
-29 -35 0
-29 -36 0
-29 -37 0
-29 -38 0
-30 -31 0
-30 -32 0
-30 -33 0
-30 -34 0
-30 -35 0
-30 -36 0
-30 -37 0
-30 -38 0
-30 -39 0
-22 -41 0
-23 -41 0
-23 -42 0
-24 -41 0
-24 -42 0
-24 -43 0
-25 -41 0
-25 -42 0
-25 -43 0
-25 -44 0
-26 -41 0
-26 -42 0
-26 -43 0
-26 -44 0
-26 -45 0
-27 -41 0
-27 -42 0
-27 -43 0
-27 -44 0
-27 -45 0
-27 -46 0
-28 -41 0
-28 -42 0
-28 -43 0
-28 -44 0
-28 -45 0
-28 -46 0
-28 -47 0
-29 -41 0
-29 -42 0
-29 -43 0
-29 -44 0
-29 -45 0
-29 -46 0
-29 -47 0
-29 -48 0
-30 -41 0
-30 -42 0
-30 -43 0
-30 -44 0
-30 -45 0
-30 -46 0
-30 -47 0
-30 -48 0
-30 -49 0
-22 -51 0
-23 -51 0
-23 -52 0
-24 -51 0
-24 -52 0
-24 -53 0
-25 -51 0
-25 -52 0
-25 -53 0
-25 -54 0
-26 -51 0
-26 -52 0
-26 -53 0
-26 -54 0
-26 -55 0
-27 -51 0
-27 -52 0
-27 -53 0
-27 -54 0
-27 -55 0
-27 -56 0
-28 -51 0
-28 -52 0
-28 -53 0
-28 -54 0
-28 -55 0
-28 -56 0
-28 -57 0
-29 -51 0
-29 -52 0
-29 -53 0
-29 -54 0
-29 -55 0
-29 -56 0
-29 -57 0
-29 -58 0
-30 -51 0
-30 -52 0
-30 -53 0
-30 -54 0
-30 -55 0
-30 -56 0
-30 -57 0
-30 -58 0
-30 -59 0
-22 -61 0
-23 -61 0
-23 -62 0
-24 -61 0
-24 -62 0
-24 -63 0
-25 -61 0
-25 -62 0
-25 -63 0
-25 -64 0
-26 -61 0
-26 -62 0
-26 -63 0
-26 -64 0
-26 -65 0
-27 -61 0
-27 -62 0
-27 -63 0
-27 -64 0
-27 -65 0
-27 -66 0
-28 -61 0
-28 -62 0
-28 -63 0
-28 -64 0
-28 -65 0
-28 -66 0
-28 -67 0
-29 -61 0
-29 -62 0
-29 -63 0
-29 -64 0
-29 -65 0
-29 -66 0
-29 -67 0
-29 -68 0
-30 -61 0
-30 -62 0
-30 -63 0
-30 -64 0
-30 -65 0
-30 -66 0
-30 -67 0
-30 -68 0
-30 -69 0
-22 -71 0
-23 -71 0
-23 -72 0
-24 -71 0
-24 -72 0
-24 -73 0
-25 -71 0
-25 -72 0
-25 -73 0
-25 -74 0
-26 -71 0
-26 -72 0
-26 -73 0
-26 -74 0
-26 -75 0
-27 -71 0
-27 -72 0
-27 -73 0
-27 -74 0
-27 -75 0
-27 -76 0
-28 -71 0
-28 -72 0
-28 -73 0
-28 -74 0
-28 -75 0
-28 -76 0
-28 -77 0
-29 -71 0
-29 -72 0
-29 -73 0
-29 -74 0
-29 -75 0
-29 -76 0
-29 -77 0
-29 -78 0
-30 -71 0
-30 -72 0
-30 -73 0
-30 -74 0
-30 -75 0
-30 -76 0
-30 -77 0
-30 -78 0
-30 -79 0
-22 -81 0
-23 -81 0
-23 -82 0
-24 -81 0
-24 -82 0
-24 -83 0
-25 -81 0
-25 -82 0
-25 -83 0
-25 -84 0
-26 -81 0
-26 -82 0
-26 -83 0
-26 -84 0
-26 -85 0
-27 -81 0
-27 -82 0
-27 -83 0
-27 -84 0
-27 -85 0
-27 -86 0
-28 -81 0
-28 -82 0
-28 -83 0
-28 -84 0
-28 -85 0
-28 -86 0
-28 -87 0
-29 -81 0
-29 -82 0
-29 -83 0
-29 -84 0
-29 -85 0
-29 -86 0
-29 -87 0
-29 -88 0
-30 -81 0
-30 -82 0
-30 -83 0
-30 -84 0
-30 -85 0
-30 -86 0
-30 -87 0
-30 -88 0
-30 -89 0
-22 -91 0
-23 -91 0
-23 -92 0
-24 -91 0
-24 -92 0
-24 -93 0
-25 -91 0
-25 -92 0
-25 -93 0
-25 -94 0
-26 -91 0
-26 -92 0
-26 -93 0
-26 -94 0
-26 -95 0
-27 -91 0
-27 -92 0
-27 -93 0
-27 -94 0
-27 -95 0
-27 -96 0
-28 -91 0
-28 -92 0
-28 -93 0
-28 -94 0
-28 -95 0
-28 -96 0
-28 -97 0
-29 -91 0
-29 -92 0
-29 -93 0
-29 -94 0
-29 -95 0
-29 -96 0
-29 -97 0
-29 -98 0
-30 -91 0
-30 -92 0
-30 -93 0
-30 -94 0
-30 -95 0
-30 -96 0
-30 -97 0
-30 -98 0
-30 -99 0
-32 -41 0
-33 -41 0
-33 -42 0
-34 -41 0
-34 -42 0
-34 -43 0
-35 -41 0
-35 -42 0
-35 -43 0
-35 -44 0
-36 -41 0
-36 -42 0
-36 -43 0
-36 -44 0
-36 -45 0
-37 -41 0
-37 -42 0
-37 -43 0
-37 -44 0
-37 -45 0
-37 -46 0
-38 -41 0
-38 -42 0
-38 -43 0
-38 -44 0
-38 -45 0
-38 -46 0
-38 -47 0
-39 -41 0
-39 -42 0
-39 -43 0
-39 -44 0
-39 -45 0
-39 -46 0
-39 -47 0
-39 -48 0
-40 -41 0
-40 -42 0
-40 -43 0
-40 -44 0
-40 -45 0
-40 -46 0
-40 -47 0
-40 -48 0
-40 -49 0
-32 -51 0
-33 -51 0
-33 -52 0
-34 -51 0
-34 -52 0
-34 -53 0
-35 -51 0
-35 -52 0
-35 -53 0
-35 -54 0
-36 -51 0
-36 -52 0
-36 -53 0
-36 -54 0
-36 -55 0
-37 -51 0
-37 -52 0
-37 -53 0
-37 -54 0
-37 -55 0
-37 -56 0
-38 -51 0
-38 -52 0
-38 -53 0
-38 -54 0
-38 -55 0
-38 -56 0
-38 -57 0
-39 -51 0
-39 -52 0
-39 -53 0
-39 -54 0
-39 -55 0
-39 -56 0
-39 -57 0
-39 -58 0
-40 -51 0
-40 -52 0
-40 -53 0
-40 -54 0
-40 -55 0
-40 -56 0
-40 -57 0
-40 -58 0
-40 -59 0
-32 -61 0
-33 -61 0
-33 -62 0
-34 -61 0
-34 -62 0
-34 -63 0
-35 -61 0
-35 -62 0
-35 -63 0
-35 -64 0
-36 -61 0
-36 -62 0
-36 -63 0
-36 -64 0
-36 -65 0
-37 -61 0
-37 -62 0
-37 -63 0
-37 -64 0
-37 -65 0
-37 -66 0
-38 -61 0
-38 -62 0
-38 -63 0
-38 -64 0
-38 -65 0
-38 -66 0
-38 -67 0
-39 -61 0
-39 -62 0
-39 -63 0
-39 -64 0
-39 -65 0
-39 -66 0
-39 -67 0
-39 -68 0
-40 -61 0
-40 -62 0
-40 -63 0
-40 -64 0
-40 -65 0
-40 -66 0
-40 -67 0
-40 -68 0
-40 -69 0
-32 -71 0
-33 -71 0
-33 -72 0
-34 -71 0
-34 -72 0
-34 -73 0
-35 -71 0
-35 -72 0
-35 -73 0
-35 -74 0
-36 -71 0
-36 -72 0
-36 -73 0
-36 -74 0
-36 -75 0
-37 -71 0
-37 -72 0
-37 -73 0
-37 -74 0
-37 -75 0
-37 -76 0
-38 -71 0
-38 -72 0
-38 -73 0
-38 -74 0
-38 -75 0
-38 -76 0
-38 -77 0
-39 -71 0
-39 -72 0
-39 -73 0
-39 -74 0
-39 -75 0
-39 -76 0
-39 -77 0
-39 -78 0
-40 -71 0
-40 -72 0
-40 -73 0
-40 -74 0
-40 -75 0
-40 -76 0
-40 -77 0
-40 -78 0
-40 -79 0
-32 -81 0
-33 -81 0
-33 -82 0
-34 -81 0
-34 -82 0
-34 -83 0
-35 -81 0
-35 -82 0
-35 -83 0
-35 -84 0
-36 -81 0
-36 -82 0
-36 -83 0
-36 -84 0
-36 -85 0
-37 -81 0
-37 -82 0
-37 -83 0
-37 -84 0
-37 -85 0
-37 -86 0
-38 -81 0
-38 -82 0
-38 -83 0
-38 -84 0
-38 -85 0
-38 -86 0
-38 -87 0
-39 -81 0
-39 -82 0
-39 -83 0
-39 -84 0
-39 -85 0
-39 -86 0
-39 -87 0
-39 -88 0
-40 -81 0
-40 -82 0
-40 -83 0
-40 -84 0
-40 -85 0
-40 -86 0
-40 -87 0
-40 -88 0
-40 -89 0
-32 -91 0
-33 -91 0
-33 -92 0
-34 -91 0
-34 -92 0
-34 -93 0
-35 -91 0
-35 -92 0
-35 -93 0
-35 -94 0
-36 -91 0
-36 -92 0
-36 -93 0
-36 -94 0
-36 -95 0
-37 -91 0
-37 -92 0
-37 -93 0
-37 -94 0
-37 -95 0
-37 -96 0
-38 -91 0
-38 -92 0
-38 -93 0
-38 -94 0
-38 -95 0
-38 -96 0
-38 -97 0
-39 -91 0
-39 -92 0
-39 -93 0
-39 -94 0
-39 -95 0
-39 -96 0
-39 -97 0
-39 -98 0
-40 -91 0
-40 -92 0
-40 -93 0
-40 -94 0
-40 -95 0
-40 -96 0
-40 -97 0
-40 -98 0
-40 -99 0
-42 -51 0
-43 -51 0
-43 -52 0
-44 -51 0
-44 -52 0
-44 -53 0
-45 -51 0
-45 -52 0
-45 -53 0
-45 -54 0
-46 -51 0
-46 -52 0
-46 -53 0
-46 -54 0
-46 -55 0
-47 -51 0
-47 -52 0
-47 -53 0
-47 -54 0
-47 -55 0
-47 -56 0
-48 -51 0
-48 -52 0
-48 -53 0
-48 -54 0
-48 -55 0
-48 -56 0
-48 -57 0
-49 -51 0
-49 -52 0
-49 -53 0
-49 -54 0
-49 -55 0
-49 -56 0
-49 -57 0
-49 -58 0
-50 -51 0
-50 -52 0
-50 -53 0
-50 -54 0
-50 -55 0
-50 -56 0
-50 -57 0
-50 -58 0
-50 -59 0
-42 -61 0
-43 -61 0
-43 -62 0
-44 -61 0
-44 -62 0
-44 -63 0
-45 -61 0
-45 -62 0
-45 -63 0
-45 -64 0
-46 -61 0
-46 -62 0
-46 -63 0
-46 -64 0
-46 -65 0
-47 -61 0
-47 -62 0
-47 -63 0
-47 -64 0
-47 -65 0
-47 -66 0
-48 -61 0
-48 -62 0
-48 -63 0
-48 -64 0
-48 -65 0
-48 -66 0
-48 -67 0
-49 -61 0
-49 -62 0
-49 -63 0
-49 -64 0
-49 -65 0
-49 -66 0
-49 -67 0
-49 -68 0
-50 -61 0
-50 -62 0
-50 -63 0
-50 -64 0
-50 -65 0
-50 -66 0
-50 -67 0
-50 -68 0
-50 -69 0
-42 -71 0
-43 -71 0
-43 -72 0
-44 -71 0
-44 -72 0
-44 -73 0
-45 -71 0
-45 -72 0
-45 -73 0
-45 -74 0
-46 -71 0
-46 -72 0
-46 -73 0
-46 -74 0
-46 -75 0
-47 -71 0
-47 -72 0
-47 -73 0
-47 -74 0
-47 -75 0
-47 -76 0
-48 -71 0
-48 -72 0
-48 -73 0
-48 -74 0
-48 -75 0
-48 -76 0
-48 -77 0
-49 -71 0
-49 -72 0
-49 -73 0
-49 -74 0
-49 -75 0
-49 -76 0
-49 -77 0
-49 -78 0
-50 -71 0
-50 -72 0
-50 -73 0
-50 -74 0
-50 -75 0
-50 -76 0
-50 -77 0
-50 -78 0
-50 -79 0
-42 -81 0
-43 -81 0
-43 -82 0
-44 -81 0
-44 -82 0
-44 -83 0
-45 -81 0
-45 -82 0
-45 -83 0
-45 -84 0
-46 -81 0
-46 -82 0
-46 -83 0
-46 -84 0
-46 -85 0
-47 -81 0
-47 -82 0
-47 -83 0
-47 -84 0
-47 -85 0
-47 -86 0
-48 -81 0
-48 -82 0
-48 -83 0
-48 -84 0
-48 -85 0
-48 -86 0
-48 -87 0
-49 -81 0
-49 -82 0
-49 -83 0
-49 -84 0
-49 -85 0
-49 -86 0
-49 -87 0
-49 -88 0
-50 -81 0
-50 -82 0
-50 -83 0
-50 -84 0
-50 -85 0
-50 -86 0
-50 -87 0
-50 -88 0
-50 -89 0
-42 -91 0
-43 -91 0
-43 -92 0
-44 -91 0
-44 -92 0
-44 -93 0
-45 -91 0
-45 -92 0
-45 -93 0
-45 -94 0
-46 -91 0
-46 -92 0
-46 -93 0
-46 -94 0
-46 -95 0
-47 -91 0
-47 -92 0
-47 -93 0
-47 -94 0
-47 -95 0
-47 -96 0
-48 -91 0
-48 -92 0
-48 -93 0
-48 -94 0
-48 -95 0
-48 -96 0
-48 -97 0
-49 -91 0
-49 -92 0
-49 -93 0
-49 -94 0
-49 -95 0
-49 -96 0
-49 -97 0
-49 -98 0
-50 -91 0
-50 -92 0
-50 -93 0
-50 -94 0
-50 -95 0
-50 -96 0
-50 -97 0
-50 -98 0
-50 -99 0
-52 -61 0
-53 -61 0
-53 -62 0
-54 -61 0
-54 -62 0
-54 -63 0
-55 -61 0
-55 -62 0
-55 -63 0
-55 -64 0
-56 -61 0
-56 -62 0
-56 -63 0
-56 -64 0
-56 -65 0
-57 -61 0
-57 -62 0
-57 -63 0
-57 -64 0
-57 -65 0
-57 -66 0
-58 -61 0
-58 -62 0
-58 -63 0
-58 -64 0
-58 -65 0
-58 -66 0
-58 -67 0
-59 -61 0
-59 -62 0
-59 -63 0
-59 -64 0
-59 -65 0
-59 -66 0
-59 -67 0
-59 -68 0
-60 -61 0
-60 -62 0
-60 -63 0
-60 -64 0
-60 -65 0
-60 -66 0
-60 -67 0
-60 -68 0
-60 -69 0
-52 -71 0
-53 -71 0
-53 -72 0
-54 -71 0
-54 -72 0
-54 -73 0
-55 -71 0
-55 -72 0
-55 -73 0
-55 -74 0
-56 -71 0
-56 -72 0
-56 -73 0
-56 -74 0
-56 -75 0
-57 -71 0
-57 -72 0
-57 -73 0
-57 -74 0
-57 -75 0
-57 -76 0
-58 -71 0
-58 -72 0
-58 -73 0
-58 -74 0
-58 -75 0
-58 -76 0
-58 -77 0
-59 -71 0
-59 -72 0
-59 -73 0
-59 -74 0
-59 -75 0
-59 -76 0
-59 -77 0
-59 -78 0
-60 -71 0
-60 -72 0
-60 -73 0
-60 -74 0
-60 -75 0
-60 -76 0
-60 -77 0
-60 -78 0
-60 -79 0
-52 -81 0
-53 -81 0
-53 -82 0
-54 -81 0
-54 -82 0
-54 -83 0
-55 -81 0
-55 -82 0
-55 -83 0
-55 -84 0
-56 -81 0
-56 -82 0
-56 -83 0
-56 -84 0
-56 -85 0
-57 -81 0
-57 -82 0
-57 -83 0
-57 -84 0
-57 -85 0
-57 -86 0
-58 -81 0
-58 -82 0
-58 -83 0
-58 -84 0
-58 -85 0
-58 -86 0
-58 -87 0
-59 -81 0
-59 -82 0
-59 -83 0
-59 -84 0
-59 -85 0
-59 -86 0
-59 -87 0
-59 -88 0
-60 -81 0
-60 -82 0
-60 -83 0
-60 -84 0
-60 -85 0
-60 -86 0
-60 -87 0
-60 -88 0
-60 -89 0
-52 -91 0
-53 -91 0
-53 -92 0
-54 -91 0
-54 -92 0
-54 -93 0
-55 -91 0
-55 -92 0
-55 -93 0
-55 -94 0
-56 -91 0
-56 -92 0
-56 -93 0
-56 -94 0
-56 -95 0
-57 -91 0
-57 -92 0
-57 -93 0
-57 -94 0
-57 -95 0
-57 -96 0
-58 -91 0
-58 -92 0
-58 -93 0
-58 -94 0
-58 -95 0
-58 -96 0
-58 -97 0
-59 -91 0
-59 -92 0
-59 -93 0
-59 -94 0
-59 -95 0
-59 -96 0
-59 -97 0
-59 -98 0
-60 -91 0
-60 -92 0
-60 -93 0
-60 -94 0
-60 -95 0
-60 -96 0
-60 -97 0
-60 -98 0
-60 -99 0
-62 -71 0
-63 -71 0
-63 -72 0
-64 -71 0
-64 -72 0
-64 -73 0
-65 -71 0
-65 -72 0
-65 -73 0
-65 -74 0
-66 -71 0
-66 -72 0
-66 -73 0
-66 -74 0
-66 -75 0
-67 -71 0
-67 -72 0
-67 -73 0
-67 -74 0
-67 -75 0
-67 -76 0
-68 -71 0
-68 -72 0
-68 -73 0
-68 -74 0
-68 -75 0
-68 -76 0
-68 -77 0
-69 -71 0
-69 -72 0
-69 -73 0
-69 -74 0
-69 -75 0
-69 -76 0
-69 -77 0
-69 -78 0
-70 -71 0
-70 -72 0
-70 -73 0
-70 -74 0
-70 -75 0
-70 -76 0
-70 -77 0
-70 -78 0
-70 -79 0
-62 -81 0
-63 -81 0
-63 -82 0
-64 -81 0
-64 -82 0
-64 -83 0
-65 -81 0
-65 -82 0
-65 -83 0
-65 -84 0
-66 -81 0
-66 -82 0
-66 -83 0
-66 -84 0
-66 -85 0
-67 -81 0
-67 -82 0
-67 -83 0
-67 -84 0
-67 -85 0
-67 -86 0
-68 -81 0
-68 -82 0
-68 -83 0
-68 -84 0
-68 -85 0
-68 -86 0
-68 -87 0
-69 -81 0
-69 -82 0
-69 -83 0
-69 -84 0
-69 -85 0
-69 -86 0
-69 -87 0
-69 -88 0
-70 -81 0
-70 -82 0
-70 -83 0
-70 -84 0
-70 -85 0
-70 -86 0
-70 -87 0
-70 -88 0
-70 -89 0
-62 -91 0
-63 -91 0
-63 -92 0
-64 -91 0
-64 -92 0
-64 -93 0
-65 -91 0
-65 -92 0
-65 -93 0
-65 -94 0
-66 -91 0
-66 -92 0
-66 -93 0
-66 -94 0
-66 -95 0
-67 -91 0
-67 -92 0
-67 -93 0
-67 -94 0
-67 -95 0
-67 -96 0
-68 -91 0
-68 -92 0
-68 -93 0
-68 -94 0
-68 -95 0
-68 -96 0
-68 -97 0
-69 -91 0
-69 -92 0
-69 -93 0
-69 -94 0
-69 -95 0
-69 -96 0
-69 -97 0
-69 -98 0
-70 -91 0
-70 -92 0
-70 -93 0
-70 -94 0
-70 -95 0
-70 -96 0
-70 -97 0
-70 -98 0
-70 -99 0
-72 -81 0
-73 -81 0
-73 -82 0
-74 -81 0
-74 -82 0
-74 -83 0
-75 -81 0
-75 -82 0
-75 -83 0
-75 -84 0
-76 -81 0
-76 -82 0
-76 -83 0
-76 -84 0
-76 -85 0
-77 -81 0
-77 -82 0
-77 -83 0
-77 -84 0
-77 -85 0
-77 -86 0
-78 -81 0
-78 -82 0
-78 -83 0
-78 -84 0
-78 -85 0
-78 -86 0
-78 -87 0
-79 -81 0
-79 -82 0
-79 -83 0
-79 -84 0
-79 -85 0
-79 -86 0
-79 -87 0
-79 -88 0
-80 -81 0
-80 -82 0
-80 -83 0
-80 -84 0
-80 -85 0
-80 -86 0
-80 -87 0
-80 -88 0
-80 -89 0
-72 -91 0
-73 -91 0
-73 -92 0
-74 -91 0
-74 -92 0
-74 -93 0
-75 -91 0
-75 -92 0
-75 -93 0
-75 -94 0
-76 -91 0
-76 -92 0
-76 -93 0
-76 -94 0
-76 -95 0
-77 -91 0
-77 -92 0
-77 -93 0
-77 -94 0
-77 -95 0
-77 -96 0
-78 -91 0
-78 -92 0
-78 -93 0
-78 -94 0
-78 -95 0
-78 -96 0
-78 -97 0
-79 -91 0
-79 -92 0
-79 -93 0
-79 -94 0
-79 -95 0
-79 -96 0
-79 -97 0
-79 -98 0
-80 -91 0
-80 -92 0
-80 -93 0
-80 -94 0
-80 -95 0
-80 -96 0
-80 -97 0
-80 -98 0
-80 -99 0
-82 -91 0
-83 -91 0
-83 -92 0
-84 -91 0
-84 -92 0
-84 -93 0
-85 -91 0
-85 -92 0
-85 -93 0
-85 -94 0
-86 -91 0
-86 -92 0
-86 -93 0
-86 -94 0
-86 -95 0
-87 -91 0
-87 -92 0
-87 -93 0
-87 -94 0
-87 -95 0
-87 -96 0
-88 -91 0
-88 -92 0
-88 -93 0
-88 -94 0
-88 -95 0
-88 -96 0
-88 -97 0
-89 -91 0
-89 -92 0
-89 -93 0
-89 -94 0
-89 -95 0
-89 -96 0
-89 -97 0
-89 -98 0
-90 -91 0
-90 -92 0
-90 -93 0
-90 -94 0
-90 -95 0
-90 -96 0
-90 -97 0
-90 -98 0
-90 -99 0
